glpk/models/scale7.lp
\* Problem: Scale 7 - Hospital *\

Minimize
 z: + 1.75 x1 + 1.5 x2 + 1.25 x3 + x4 + x5 + x6 + x7 + x8 + 1.25 x9
 + 1.5 x10 + 1.75 x11

Subject To
 c1: + x11 + x10 + x1 >= 40
 c2: + x11 + x2 + x1 >= 30
 c3: + x3 + x2 + x1 >= 40
 c4: + x4 + x3 + x2 + x1 >= 60
 c5: + x5 + x4 + x3 + x2 >= 60
 c6: + x6 + x5 + x4 + x3 >= 70
 c7: + x7 + x6 + x5 + x4 >= 80
 c8: + x8 + x7 + x6 + x5 >= 80
 c9: + x9 + x8 + x7 + x6 >= 70
 c10: + x10 + x9 + x8 + x7 >= 70
 c11: + x11 + x10 + x9 + x8 >= 60
 c12: + x11 + x10 + x9 >= 50

Generals
 x1
 x2
 x3
 x4
 x5
 x6
 x7
 x8
 x9
 x10
 x11

End
