glpk/solutions/scale7.sol
Scale 7 - Hospital
z = 230.0
x1 = 30.0
x2 = 0.0
x3 = 10.0
x4 = 20.0
x5 = 30.0
x6 = 10.0
x7 = 20.0
x8 = 20.0
x9 = 40.0
x10 = 10.0
x11 = 0.0
